
Gurobi 8.1.1 (linux64, Python) logging started Mon May 20 15:36:36 2019

Academic license - for non-commercial use only

Gurobi 8.1.1 (linux64, Python) logging started Mon 20 May 2019 03:58:41 PM CDT

Academic license - for non-commercial use only

Gurobi 8.1.1 (linux64, Python) logging started Mon 20 May 2019 03:59:27 PM CDT

Academic license - for non-commercial use only

Gurobi 8.1.1 (linux64, Python) logging started Mon 20 May 2019 04:01:00 PM CDT

Academic license - for non-commercial use only

Gurobi 8.1.1 (linux64, Python) logging started Mon 20 May 2019 04:01:37 PM CDT

Academic license - for non-commercial use only

Gurobi 8.1.1 (linux64, Python) logging started Mon 20 May 2019 04:06:29 PM CDT

Academic license - for non-commercial use only

Gurobi 8.1.1 (linux64, Python) logging started Mon 20 May 2019 04:09:31 PM CDT

Academic license - for non-commercial use only

Gurobi 8.1.1 (linux64, Python) logging started Mon 20 May 2019 04:13:01 PM CDT

Academic license - for non-commercial use only

Gurobi 8.1.1 (linux64, Python) logging started Mon 20 May 2019 04:21:21 PM CDT

Academic license - for non-commercial use only

Gurobi 8.1.1 (linux64, Python) logging started Mon 20 May 2019 04:22:13 PM CDT

Academic license - for non-commercial use only

Gurobi 8.1.1 (linux64, Python) logging started Mon 20 May 2019 04:24:04 PM CDT

Academic license - for non-commercial use only

Gurobi 8.1.1 (linux64, Python) logging started Mon 20 May 2019 04:24:34 PM CDT

Academic license - for non-commercial use only

Gurobi 8.1.1 (linux64, Python) logging started Mon 20 May 2019 04:25:53 PM CDT

Academic license - for non-commercial use only

Gurobi 8.1.1 (linux64, Python) logging started Mon 20 May 2019 04:26:53 PM CDT

Academic license - for non-commercial use only

Gurobi 8.1.1 (linux64, Python) logging started Mon 20 May 2019 04:43:52 PM CDT

Academic license - for non-commercial use only

Gurobi 8.1.1 (linux64, Python) logging started Mon 20 May 2019 04:50:08 PM CDT

Academic license - for non-commercial use only

Gurobi 8.1.1 (linux64, Python) logging started Mon 20 May 2019 04:52:53 PM CDT

Academic license - for non-commercial use only

Gurobi 8.1.1 (linux64, Python) logging started Mon 20 May 2019 04:54:13 PM CDT

Academic license - for non-commercial use only

Gurobi 8.1.1 (linux64, Python) logging started Mon 20 May 2019 04:54:32 PM CDT

Academic license - for non-commercial use only

Gurobi 8.1.1 (linux64, Python) logging started Mon 20 May 2019 04:54:50 PM CDT

Academic license - for non-commercial use only

Gurobi 8.1.1 (linux64, Python) logging started Mon 20 May 2019 04:59:33 PM CDT

Academic license - for non-commercial use only

Gurobi 8.1.1 (linux64, Python) logging started Mon 20 May 2019 05:00:22 PM CDT

Academic license - for non-commercial use only

Gurobi 8.1.1 (linux64, Python) logging started Mon 20 May 2019 05:01:48 PM CDT

Academic license - for non-commercial use only

Gurobi 8.1.1 (linux64, Python) logging started Mon 20 May 2019 05:03:33 PM CDT

Academic license - for non-commercial use only

Gurobi 8.1.1 (linux64, Python) logging started Mon 20 May 2019 05:04:41 PM CDT

Academic license - for non-commercial use only

Gurobi 8.1.1 (linux64, Python) logging started Mon 20 May 2019 05:06:27 PM CDT

Academic license - for non-commercial use only

Gurobi 8.1.1 (linux64, Python) logging started Mon 20 May 2019 05:14:24 PM CDT

Academic license - for non-commercial use only

Gurobi 8.1.1 (linux64, Python) logging started Mon 20 May 2019 05:16:52 PM CDT

Academic license - for non-commercial use only

Gurobi 8.1.1 (linux64, Python) logging started Mon 20 May 2019 05:17:49 PM CDT

Academic license - for non-commercial use only

Gurobi 8.1.1 (linux64, Python) logging started Mon 20 May 2019 05:19:02 PM CDT

Academic license - for non-commercial use only

Gurobi 8.1.1 (linux64, Python) logging started Mon 20 May 2019 05:21:07 PM CDT

Academic license - for non-commercial use only
